54565
0 30 8318
30 24 299
24 14 1148
14 35 679
35 45 402
45 38 214
38 15 451
15 9 734
9 21 117
21 28 544
28 20 516
20 22 176
22 16 619
16 47 415
47 18 897
18 43 1282
43 31 676
31 40 362
40 7 891
7 37 368
37 49 1180
49 19 763
19 23 740
23 34 296
34 4 323
4 36 467
36 6 517
6 39 1176
39 50 1042
50 42 940
42 12 790
12 2 1580
2 5 385
5 27 404
27 54 487
54 48 711
48 25 560
25 53 967
53 52 624
52 33 396
33 46 702
46 29 944
29 3 380
3 17 606
17 11 768
11 8 723
8 13 471
13 1 433
1 51 598
51 44 722
44 10 436
10 41 1343
41 32 4807
32 26 4053
26 0 4123
